words_hard_train/7691.qaiger
aag 128 21 0 1 107
2
4
8
16
30
38
50
58
70
78
120
124
130
136
156
174
182
194
202
224
226
257
6 2 5
10 5 8
12 4 9
14 11 13
18 15 17
20 14 16
22 19 21
24 6 22
26 25 21
28 13 9
32 29 30
34 28 31
36 33 35
40 36 39
42 37 38
44 41 43
46 27 44
48 47 43
52 35 50
54 34 51
56 53 55
60 56 59
62 57 58
64 61 63
66 49 64
68 67 63
72 55 70
74 54 71
76 73 75
80 76 79
82 77 78
84 81 83
86 68 85
88 69 84
90 87 89
92 3 4
94 93 7
96 7 23
98 97 25
100 95 99
102 26 45
104 103 47
106 100 105
108 48 65
110 109 67
112 106 111
114 91 112
116 107 110
118 117 113
122 118 120
126 104 125
128 127 107
132 98 131
134 23 130
138 94 137
140 135 138
142 133 141
144 105 124
146 143 145
148 128 147
150 110 121
152 148 151
154 123 153
158 154 156
160 114 158
162 90 113
164 163 157
166 164 155
168 167 115
170 161 169
172 89 83
176 75 174
178 74 175
180 177 179
184 180 183
186 181 182
188 185 187
190 173 188
192 191 187
196 179 194
198 178 195
200 197 199
204 200 203
206 201 202
208 205 207
210 193 208
212 192 209
214 211 213
216 170 215
218 172 189
220 219 191
222 216 221
228 224 226
230 225 227
232 229 231
234 233 198
236 232 199
238 235 237
240 211 207
242 238 241
244 239 240
246 243 245
248 220 162
250 158 248
252 250 214
254 247 253
256 223 255
i0 2 y2[0]
i1 1 x1[0]
i2 1 x1[1]
i3 2 y2[1]
i4 1 x1[2]
i5 2 y2[2]
i6 1 x1[3]
i7 2 y2[3]
i8 1 x1[4]
i9 2 y2[4]
i10 2 y1[6]
i11 2 y1[5]
i12 2 y1[4]
i13 2 y1[3]
i14 2 y1[7]
i15 1 x1[5]
i16 2 y2[5]
i17 1 x1[6]
i18 2 y2[6]
i19 1 x1[7]
i20 2 y2[7]
o0 bv[0]
c
simplified
  >=
    >> 3
      2 y1
    add
      subtract
        1 x1
        1
      2 y2
