words_hard_train/7691.qaiger.qdimacs
p cnf 128 322
a 97 2 35 4 15 112 87 25 0
e 1 3 5 6 7 8 9 10 11 12 13 14 16 17 18 19 20 21 22 23 24 26 27 28 29 30 31 32 33 34 36 37 38 39 40 41 42 43 44 45 46 47 48 49 50 51 52 53 54 55 56 57 58 59 60 61 62 63 64 65 66 67 68 69 70 71 72 73 74 75 76 77 78 79 80 81 82 83 84 85 86 88 89 90 91 92 93 94 95 96 98 99 100 101 102 103 104 105 106 107 108 109 110 111 113 114 115 116 117 118 119 120 121 122 123 124 125 126 127 128 0
-1 2 3 0
1 -3 0
-2 -3 0
2 -4 5 0
-2 -5 0
4 -5 0
-2 4 6 0
2 -6 0
-4 -6 0
5 6 7 0
-5 -7 0
-6 -7 0
7 8 9 0
-7 -9 0
-8 -9 0
-7 -8 10 0
7 -10 0
8 -10 0
9 10 11 0
-9 -11 0
-10 -11 0
-3 -11 12 0
3 -12 0
11 -12 0
12 10 13 0
-12 -13 0
-10 -13 0
6 4 14 0
-6 -14 0
-4 -14 0
14 -15 16 0
-14 -16 0
15 -16 0
-14 15 17 0
14 -17 0
-15 -17 0
16 17 18 0
-16 -18 0
-17 -18 0
-18 19 20 0
18 -20 0
-19 -20 0
18 -19 21 0
-18 -21 0
19 -21 0
20 21 22 0
-20 -22 0
-21 -22 0
13 -22 23 0
-13 -23 0
22 -23 0
23 21 24 0
-23 -24 0
-21 -24 0
17 -25 26 0
-17 -26 0
25 -26 0
-17 25 27 0
17 -27 0
-25 -27 0
26 27 28 0
-26 -28 0
-27 -28 0
-28 29 30 0
28 -30 0
-29 -30 0
28 -29 31 0
-28 -31 0
29 -31 0
30 31 32 0
-30 -32 0
-31 -32 0
24 -32 33 0
-24 -33 0
32 -33 0
33 31 34 0
-33 -34 0
-31 -34 0
27 -35 36 0
-27 -36 0
35 -36 0
-27 35 37 0
27 -37 0
-35 -37 0
36 37 38 0
-36 -38 0
-37 -38 0
-38 39 40 0
38 -40 0
-39 -40 0
38 -39 41 0
-38 -41 0
39 -41 0
40 41 42 0
-40 -42 0
-41 -42 0
-34 42 43 0
34 -43 0
-42 -43 0
34 -42 44 0
-34 -44 0
42 -44 0
43 44 45 0
-43 -45 0
-44 -45 0
1 -2 46 0
-1 -46 0
2 -46 0
46 3 47 0
-46 -47 0
-3 -47 0
3 11 48 0
-3 -48 0
-11 -48 0
48 12 49 0
-48 -49 0
-12 -49 0
47 49 50 0
-47 -50 0
-49 -50 0
-13 22 51 0
13 -51 0
-22 -51 0
51 23 52 0
-51 -52 0
-23 -52 0
-50 52 53 0
50 -53 0
-52 -53 0
-24 32 54 0
24 -54 0
-32 -54 0
54 33 55 0
-54 -55 0
-33 -55 0
-53 55 56 0
53 -56 0
-55 -56 0
45 -56 57 0
-45 -57 0
56 -57 0
53 -55 58 0
-53 -58 0
55 -58 0
58 56 59 0
-58 -59 0
-56 -59 0
-59 -60 61 0
59 -61 0
60 -61 0
-52 62 63 0
52 -63 0
-62 -63 0
63 53 64 0
-63 -64 0
-53 -64 0
-49 65 66 0
49 -66 0
-65 -66 0
11 -65 67 0
-11 -67 0
65 -67 0
-47 68 69 0
47 -69 0
-68 -69 0
67 -69 70 0
-67 -70 0
69 -70 0
66 70 71 0
-66 -71 0
-70 -71 0
52 -62 72 0
-52 -72 0
62 -72 0
71 72 73 0
-71 -73 0
-72 -73 0
-64 73 74 0
64 -74 0
-73 -74 0
-55 60 75 0
55 -75 0
-60 -75 0
-74 75 76 0
74 -76 0
-75 -76 0
61 76 77 0
-61 -77 0
-76 -77 0
-77 -78 79 0
77 -79 0
78 -79 0
-57 -79 80 0
57 -80 0
79 -80 0
-45 56 81 0
45 -81 0
-56 -81 0
81 78 82 0
-81 -82 0
-78 -82 0
-82 77 83 0
82 -83 0
-77 -83 0
83 57 84 0
-83 -84 0
-57 -84 0
80 84 85 0
-80 -85 0
-84 -85 0
44 41 86 0
-44 -86 0
-41 -86 0
37 -87 88 0
-37 -88 0
87 -88 0
-37 87 89 0
37 -89 0
-87 -89 0
88 89 90 0
-88 -90 0
-89 -90 0
-90 91 92 0
90 -92 0
-91 -92 0
90 -91 93 0
-90 -93 0
91 -93 0
92 93 94 0
-92 -94 0
-93 -94 0
86 -94 95 0
-86 -95 0
94 -95 0
95 93 96 0
-95 -96 0
-93 -96 0
89 -97 98 0
-89 -98 0
97 -98 0
-89 97 99 0
89 -99 0
-97 -99 0
98 99 100 0
-98 -100 0
-99 -100 0
-100 101 102 0
100 -102 0
-101 -102 0
100 -101 103 0
-100 -103 0
101 -103 0
102 103 104 0
-102 -104 0
-103 -104 0
96 -104 105 0
-96 -105 0
104 -105 0
-96 104 106 0
96 -106 0
-104 -106 0
105 106 107 0
-105 -107 0
-106 -107 0
-85 107 108 0
85 -108 0
-107 -108 0
-86 94 109 0
86 -109 0
-94 -109 0
109 95 110 0
-109 -110 0
-95 -110 0
-108 110 111 0
108 -111 0
-110 -111 0
-112 -113 114 0
112 -114 0
113 -114 0
112 113 115 0
-112 -115 0
-113 -115 0
114 115 116 0
-114 -116 0
-115 -116 0
116 -99 117 0
-116 -117 0
99 -117 0
-116 99 118 0
116 -118 0
-99 -118 0
117 118 119 0
-117 -119 0
-118 -119 0
105 103 120 0
-105 -120 0
-103 -120 0
-119 120 121 0
119 -121 0
-120 -121 0
119 -120 122 0
-119 -122 0
120 -122 0
121 122 123 0
-121 -123 0
-122 -123 0
-110 -81 124 0
110 -124 0
81 -124 0
-79 -124 125 0
79 -125 0
124 -125 0
-125 -107 126 0
125 -126 0
107 -126 0
123 126 127 0
-123 -127 0
-126 -127 0
111 127 128 0
-111 -128 0
-127 -128 0
-128 0
